letting initialStacks = [14, 18, 27, 23, 33, 32, 16, 47, 25, 10, 11, 46, 31, 40, 50, 41, 26, 43, 2, 45, 5, 13, 17, 8, 29, 44, 20, 15, 35, 36, 19, 49, 6, 3, 12, 37, 24, 7, 34, 4, 30, 9, 42, 21, 51, 22, 48, 39, 1, 38, 28]
